NAME : U-A-n39-k6.833205.tour
COMMENT : Cost = 0_833205
COMMENT : Found by LKH [Keld Helsgaun] Wed Sep 13 14:25:34 2017
TYPE : TOUR
DIMENSION : 44
TOUR_SECTION
1
16
31
14
41
3
20
34
26
36
15
32
38
43
8
9
5
17
11
28
19
40
27
12
44
7
2
37
18
24
22
23
35
33
21
42
6
30
29
10
13
39
4
25
-1
EOF
